************************************************************************
file with basedata            : md382_.bas
initial value random generator: 1474870836
************************************************************************
projects                      :  1
jobs (incl. supersource/sink ):  22
horizon                       :  169
RESOURCES
  - renewable                 :  2   R
  - nonrenewable              :  2   N
  - doubly constrained        :  0   D
************************************************************************
PROJECT INFORMATION:
pronr.  #jobs rel.date duedate tardcost  MPM-Time
    1     20      0       25        4       25
************************************************************************
PRECEDENCE RELATIONS:
jobnr.    #modes  #successors   successors
   1        1          3           2   3   4
   2        3          2          11  20
   3        3          1           9
   4        3          3           5   9  14
   5        3          3           6   7  11
   6        3          3           8  10  17
   7        3          2          10  17
   8        3          2          15  16
   9        3          1          13
  10        3          1          12
  11        3          2          19  21
  12        3          1          13
  13        3          3          15  16  18
  14        3          3          15  16  17
  15        3          1          19
  16        3          2          20  21
  17        3          1          18
  18        3          3          19  20  21
  19        3          1          22
  20        3          1          22
  21        3          1          22
  22        1          0        
************************************************************************
REQUESTS/DURATIONS:
jobnr. mode duration  R 1  R 2  N 1  N 2
------------------------------------------------------------------------
  1      1     0       0    0    0    0
  2      1     5       6    7    5    9
         2     9       3    6    3    6
         3    10       3    2    1    3
  3      1     6       9    7    9   10
         2     8       9    6    9   10
         3    10       9    5    8    9
  4      1     2       9   10    8    5
         2     4       7    7    8    5
         3    10       7    4    8    4
  5      1     2       2    4   10    4
         2     5       2    3   10    3
         3     8       1    2    9    3
  6      1     2       9    6    5    8
         2     8       9    5    4    5
         3     9       9    2    3    5
  7      1     3       8    1   10    6
         2     3       9    1    8    9
         3     7       4    1    7    4
  8      1     1      10    9    4    9
         2     2      10    8    3    8
         3    10       9    6    2    7
  9      1     5      10    6    7    7
         2     6       5    6    6    6
         3     8       3    1    3    4
 10      1     1       4    4    5   10
         2     8       1    3    4    6
         3     8       2    3    4    5
 11      1     1       7   10    6    5
         2     2       7    9    6    4
         3    10       6    7    5    3
 12      1     4      10    8    8    6
         2     7       8    7    6    6
         3     7       9    6    5    5
 13      1     4       4    4    3    5
         2     7       3    4    3    4
         3     8       3    3    2    3
 14      1     5       4    7    9    6
         2     8       3    4    7    3
         3     9       3    4    4    3
 15      1     5       1    9    4    6
         2     6       1    9    1    5
         3     6       1    9    3    2
 16      1     4       9    3    5    9
         2     6       6    2    4    7
         3     7       4    2    4    7
 17      1     3       7    5    3    9
         2     6       7    5    3    8
         3     7       7    4    3    8
 18      1     5      10    3    6    8
         2     7       6    2    6    7
         3    10       4    2    4    5
 19      1     2       7    6    9    9
         2     2       7    6   10    8
         3    10       7    6    8    7
 20      1     4       1    7    9    8
         2     7       1    5    9    5
         3     8       1    5    8    5
 21      1     1       7    8    7    8
         2     1       8    7    7    8
         3     7       4    6    7    8
 22      1     0       0    0    0    0
************************************************************************
RESOURCEAVAILABILITIES:
  R 1  R 2  N 1  N 2
   24   20  133  150
************************************************************************
MAXIMAL LAGS:
from  to  type  delay
    1   12   ES      0
    1    2   ES      0
    2   12   ES      0
    1    3   ES      0
    3   12   ES      0
    1    4   ES      0
    4   12   ES      0
    1    5   ES      0
    5   12   ES      0
    1    6   ES      0
    6   12   ES      0
    1    7   ES      0
    7   12   ES      0
    1    8   ES      0
    8   12   ES      0
    1    9   ES      0
    9   12   ES      0
    1   10   ES      0
   10   12   ES      0
    1   11   ES      0
   11   12   ES      0
    1   12   ES      0
    2   11   SS     -6
    2   11   SE     -6
    2   11   ES     -9
    2   11   EE     -4
    2   20   SS     -5
    2   20   SE     -7
    2   20   ES     -4
    2   20   EE    -10
    3    9   SS      8
    3    9   SE      2
    3    9   ES    -12
    3    9   EE      9
    4    5   SS      2
    4    5   SE     12
    4    5   ES     12
    4    5   EE     -9
    4    9   SS     -8
    4    9   SE      3
    4    9   ES      4
    4    9   EE      3
    4   14   SS     12
    4   14   SE      7
    4   14   ES      1
    4   14   EE     -5
    5    6   SS     -5
    5    6   SE     11
    5    6   ES      4
    5    6   EE      3
    5    7   SS     12
    5    7   SE      7
    5    7   ES      8
    5    7   EE    -11
    5   11   SS      4
    5   11   SE     11
    5   11   ES    -10
    5   11   EE     -6
    6    8   SS      9
    6    8   SE     -7
    6    8   ES     -7
    6    8   EE     11
    6   10   SS    -11
    6   10   SE      4
    6   10   ES     -8
    6   10   EE     -7
    6   17   SS    -11
    6   17   SE     -3
    6   17   ES     -3
    6   17   EE      4
    7   10   SS     -3
    7   10   SE      9
    7   10   ES     10
    7   10   EE     -5
    7   17   SS     -2
    7   17   SE     -9
    7   17   ES      7
    7   17   EE      3
    8   15   SS      4
    8   15   SE     12
    8   15   ES     12
    8   15   EE      5
    8   16   SS     -9
    8   16   SE      1
    8   16   ES     -4
    8   16   EE      6
    9   13   SS     -1
    9   13   SE      3
    9   13   ES     -9
    9   13   EE     12
   11   19   SS    -11
   11   19   SE     -3
   11   19   ES     -8
   11   19   EE      9
   11   21   SS     -2
   11   21   SE      7
   11   21   ES      6
   11   21   EE    -12
   12   13   SS    -12
   12   13   SE     10
   12   13   ES      8
   12   13   EE     -7
   13   15   SS      4
   13   15   SE     -3
   13   15   ES     -7
   13   15   EE     -8
   13   16   SS     -4
   13   16   SE     12
   13   16   ES     -9
   13   16   EE      3
   13   18   SS    -11
   13   18   SE     10
   13   18   ES     -9
   13   18   EE      5
   14   15   SS     12
   14   15   SE      8
   14   15   ES     -5
   14   15   EE      8
   14   16   SS     -9
   14   16   SE     -5
   14   16   ES      3
   14   16   EE      3
   14   17   SS      9
   14   17   SE     -4
   14   17   ES     -6
   14   17   EE     -4
   15   19   SS    -11
   15   19   SE     -5
   15   19   ES    -11
   15   19   EE     -2
   16   20   SS     11
   16   20   SE      9
   16   20   ES      3
   16   20   EE      6
   16   21   SS     -7
   16   21   SE     -2
   16   21   ES     10
   16   21   EE      8
   17   18   SS    -10
   17   18   SE      3
   17   18   ES     -5
   17   18   EE     -5
   18   19   SS     -5
   18   19   SE     -1
   18   19   ES      4
   18   19   EE     -9
   18   20   SS     -5
   18   20   SE      1
   18   20   ES      4
   18   20   EE     -7
   18   21   SS     12
   18   21   SE     -7
   18   21   ES    -11
   18   21   EE    -10
   19   22   SS      8
   19   22   SE     -2
   19   22   ES     -8
   19   22   EE      7
   20   22   SS     10
   20   22   SE      3
   20   22   ES      7
   20   22   EE      1
   21   22   SS      5
   21   22   SE     -1
   21   22   ES     -3
   21   22   EE      0
************************************************************************
